9
2147483647 84 24 27 15 19 84 92 53 
84 2147483647 75 51 92 71 76 24 70 
24 75 2147483647 90 17 16 3 67 17 
27 51 90 2147483647 33 29 64 95 57 
15 92 17 33 2147483647 98 56 97 85 
19 71 16 29 98 2147483647 55 96 99 
84 76 3 64 56 55 2147483647 73 49 
92 24 67 95 97 96 73 2147483647 38 
53 70 17 57 85 99 49 38 2147483647 
